
  32    4
  10   10   10   10

   0   0   0   0   0  10 2 13 24 25 26 27 28 29 30 31 
   7   1   1   1   0   1 3 
  10   0   4   5   1   2 23 4 
   7   2   0   4   2   2 22 5 
   3   3   0   4   5   3 21 20 6 
   4   6   0   4   4   2 19 7 
   1   0   5   5   5   2 18 8 
   3   3   5   4   0   1 9 
   9   1   4   0   7   1 10 
   4   2   2   5   0   1 11 
   6   1   3   0   4   1 12 
   7   9   5   6   0   1 14 
   9   3   4   4   0   1 14 
   9   7   3   4   0   1 15 
   9   3   4   3   0   1 16 
   4   4   0   3   5   1 17 
   6   5   0   3   6   1 32
   2   3   4   0   5   1 32
   8   3   0   4   4   1 32
   4   7   6   0   8   1 32
   4   5   5   4   0   1 32
   2   7   5   0   4   1 32
   3   6   2   0   4   1 32
   9   5   3   0   1   1 32
   4   5   0   4   3   1 32
   1   2   7   0   4   1 32
   7   5   0   2   3   1 32
   9   0   5   7   3   1 32
   9   3   4   0   2   1 32
   4   4   4   5   0   1 32
   7   3   3   3   0   1 32
   0   0   0   0   0   0 
